100 10
680 654
387 554
556 86
860 172
204 464
804 486
425 537
747 168
703 575
660 552
749 572
678 808
598 596
639 804
503 405
602 756
876 564
295 678
707 481
478 791
659 682
464 378
555 505
809 824
839 663
432 606
554 582
566 499
333 370
147 623
239 530
528 616
623 649
243 650
515 674
646 821
128 562
675 271
285 550
357 574
429 160
534 749
442 770
215 780
796 882
135 663
880 223
669 474
691 836
458 546
636 541
405 749
578 780
403 512
807 775
750 641
762 640
554 705
511 449
554 408
623 349
471 591
881 531
405 290
679 400
126 759
596 677
317 507
409 396
397 513
828 613
568 660
384 788
729 663
643 853
195 482
497 682
417 664
551 98
617 608
121 721
816 595
416 492
627 849
319 644
527 558
459 555
272 601
680 527
550 757
474 607
313 516
748 666
550 851
355 328
929 272
744 634
292 498
489 720
479 559
